p cnf 15 34
15 -14 7 0
-15 14 7 0
15 -13 7 0
-15 12 -4 0
-15 -9 6 0
15 9 3 0
15 -7 3 0
15 5 -1 0
14 13 10 0
14 13 8 0
14 13 -6 0
14 -12 -9 0
-14 -11 -6 0
14 -11 -5 0
-14 9 1 0
14 8 4 0
14 -5 2 0
14 4 1 0
-13 12 9 0
13 -11 9 0
-13 -10 -2 0
-13 9 -6 0
-13 -5 2 0
-13 -3 -2 0
12 -9 -3 0
-12 -6 -5 0
11 10 4 0
-11 -8 5 0
9 6 5 0
9 6 1 0
-8 7 -2 0
-8 -6 2 0
7 -5 -4 0
7 -5 2 0
